60
195.0 320.0 
190.0 310.0 
200.0 400.0 
195.0 320.0 
190.0 310.0 
200.0 400.0 
195.0 320.0 
190.0 310.0 
200.0 400.0 
195.0 320.0 
200.0 400.0 
190.0 310.0 
195.0 320.0 
190.0 310.0 
200.0 400.0 
200.0 400.0 
195.0 320.0 
190.0 310.0 
190.0 310.0 
195.0 320.0 
200.0 400.0 
195.0 320.0 
190.0 310.0 
200.0 400.0 
195.0 320.0 
190.0 310.0 
200.0 400.0 
195.0 320.0 
200.0 400.0 
190.0 310.0 
190.0 310.0 
195.0 320.0 
200.0 400.0 
195.0 320.0 
190.0 310.0 
200.0 400.0 
195.0 320.0 
190.0 310.0 
200.0 400.0 
200.0 400.0 
195.0 320.0 
190.0 310.0 
195.0 320.0 
190.0 310.0 
200.0 400.0 
195.0 320.0 
190.0 310.0 
200.0 400.0 
200.0 400.0 
195.0 320.0 
190.0 310.0 
195.0 320.0 
190.0 310.0 
200.0 400.0 
190.0 310.0 
195.0 320.0 
200.0 400.0 
190.0 310.0 
200.0 400.0 
195.0 320.0 

0 6 5 4 3 2 1 7 8 9 10 12 20 
0 11 6 5 4 3 2 1 7 8 9 12 20 
0 12 10 11 6 5 4 2 1 7 8 9 13 20 
0 6 5 4 3 2 1 7 8 9 10 12 20 
0 11 6 5 4 3 2 1 7 8 9 12 20 
0 12 10 11 6 5 4 2 1 7 8 9 13 20 
0 6 5 4 3 2 1 7 8 9 10 12 20 
0 11 6 5 4 3 2 1 7 8 9 12 20 
0 12 10 11 6 5 4 2 1 7 8 9 13 20 
0 6 5 4 3 2 1 7 8 9 10 12 20 
0 12 10 11 6 5 4 2 1 7 8 9 13 20 
0 11 6 5 4 3 2 1 7 8 9 12 20 
0 6 5 4 3 2 1 7 8 9 10 12 20 
0 11 6 5 4 3 2 1 7 8 9 12 20 
0 12 10 11 6 5 4 2 1 7 8 9 13 20 
0 12 10 11 6 5 4 2 1 7 8 9 13 20 
0 6 5 4 3 2 1 7 8 9 10 12 20 
0 11 6 5 4 3 2 1 7 8 9 12 20 
0 11 6 5 4 3 2 1 7 8 9 12 20 
0 6 5 4 3 2 1 7 8 9 10 12 20 
0 12 10 11 6 5 4 2 1 7 8 9 13 20 
0 6 5 4 3 2 1 7 8 9 10 12 20 
0 11 6 5 4 3 2 1 7 8 9 12 20 
0 12 10 11 6 5 4 2 1 7 8 9 13 20 
0 6 5 4 3 2 1 7 8 9 10 12 20 
0 11 6 5 4 3 2 1 7 8 9 12 20 
0 12 10 11 6 5 4 2 1 7 8 9 13 20 
0 6 5 4 3 2 1 7 8 9 10 12 20 
0 12 10 11 6 5 4 2 1 7 8 9 13 20 
0 11 6 5 4 3 2 1 7 8 9 12 20 
0 11 6 5 4 3 2 1 7 8 9 12 20 
0 6 5 4 3 2 1 7 8 9 10 12 20 
0 12 10 11 6 5 4 2 1 7 8 9 13 20 
0 6 5 4 3 2 1 7 8 9 10 12 20 
0 11 6 5 4 3 2 1 7 8 9 12 20 
0 12 10 11 6 5 4 2 1 7 8 9 13 20 
0 6 5 4 3 2 1 7 8 9 10 12 20 
0 11 6 5 4 3 2 1 7 8 9 12 20 
0 12 10 11 6 5 4 2 1 7 8 9 13 20 
0 12 10 11 6 5 4 2 1 7 8 9 13 20 
0 6 5 4 3 2 1 7 8 9 10 12 20 
0 11 6 5 4 3 2 1 7 8 9 12 20 
0 6 5 4 3 2 1 7 8 9 10 12 20 
0 11 6 5 4 3 2 1 7 8 9 12 20 
0 12 10 11 6 5 4 2 1 7 8 9 13 20 
0 6 5 4 3 2 1 7 8 9 10 12 20 
0 11 6 5 4 3 2 1 7 8 9 12 20 
0 12 10 11 6 5 4 2 1 7 8 9 13 20 
0 12 10 11 6 5 4 2 1 7 8 9 13 20 
0 6 5 4 3 2 1 7 8 9 10 12 20 
0 11 6 5 4 3 2 1 7 8 9 12 20 
0 6 5 4 3 2 1 7 8 9 10 12 20 
0 11 6 5 4 3 2 1 7 8 9 12 20 
0 12 10 11 6 5 4 2 1 7 8 9 13 20 
0 11 6 5 4 3 2 1 7 8 9 12 20 
0 6 5 4 3 2 1 7 8 9 10 12 20 
0 12 10 11 6 5 4 2 1 7 8 9 13 20 
0 11 6 5 4 3 2 1 7 8 9 12 20 
0 12 10 11 6 5 4 2 1 7 8 9 13 20 
0 6 5 4 3 2 1 7 8 9 10 12 20 
